(declare-fun e () String)
(declare-fun g () String)
(declare-fun d () String)
(declare-fun a () String)
(declare-fun h () String)
(assert (= (str.++ g "c" g) "ghafe"))
(assert (= a (str.++ "a" h)))
(assert (= "bf" (str.++ d e "g")))

(check-sat)
